db/data/118302495926797167432694301002352511679.z3.out
-------------------
2500.076493636
